language Essence 1.0

letting n be 4
letting horizon be 20

letting duration be
    [[3, 2, 4, 1],
     [2, 4, 1, 3],
     [4, 1, 3, 2],
     [1, 3, 2, 4]]

letting order be
    [[1, 2, 3, 4],
     [2, 1, 4, 3],
     [3, 4, 1, 2],
     [4, 3, 2, 1]]

